 vasp.5.4.4.18Apr17-6-g9f103f2a35 (build Dec 09 2019 14:45:46) complex with cons
 t
 executed on                ccsms date 2024.12.18  03:34:10

 INCAR:
 POTCAR:    PAW_PBE O 08Apr2002
 POTCAR:    PAW_PBE Ce 23Dec2003
 POTCAR:    PAW_PBE Ag 02Apr2005
 POTCAR:    PAW_PBE H 15Jun2001
 POTCAR:    PAW_PBE O 08Apr2002
   VRHFIN =O: s2p4

   TITEL  = PAW_PBE O 08Apr2002
   POMASS =   16.000; ZVAL   =    6.000    mass and valenz
   ENMAX  =  400.000; ENMIN  =  300.000 eV

 POTCAR:    PAW_PBE Ce 23Dec2003
   VRHFIN =Ce : [core= Kr 4d10]

   TITEL  = PAW_PBE Ce 23Dec2003
   POMASS =  140.115; ZVAL   =   12.000    mass and valenz
   ENMAX  =  273.042; ENMIN  =  204.781 eV

 POTCAR:    PAW_PBE Ag 02Apr2005
   VRHFIN =Ag : s1 d10

   TITEL  = PAW_PBE Ag 02Apr2005
   POMASS =  107.868; ZVAL   =   11.000    mass and valenz
   ENMAX  =  249.844; ENMIN  =  187.383 eV

 POTCAR:    PAW_PBE H 15Jun2001
   VRHFIN =H: ultrasoft test

   TITEL  = PAW_PBE H 15Jun2001
   POMASS =    1.000; ZVAL   =    1.000    mass and valenz
   ENMAX  =  250.000; ENMIN  =  200.000 eV

 Optimization of the real space projectors (new method)

 maximal supplied QI-value         = 24.76
 optimisation between [QCUT,QGAM] = [ 10.15, 20.30] = [ 28.85,115.39] Ry
 Optimized for a Real-space Cutoff    1.38 Angstroem

   l    n(q)    QCUT    max X(q) W(low)/X(q) W(high)/X(q)  e(spline)
   0      8    10.150    20.381    0.22E-03    0.32E-03    0.29E-06
   0      8    10.150    15.268    0.23E-03    0.35E-03    0.30E-06
   1      8    10.150     5.964    0.46E-03    0.53E-03    0.21E-06
   1      8    10.150     5.382    0.38E-03    0.45E-03    0.19E-06
 Optimization of the real space projectors (new method)

[...]

   l    n(q)    QCUT    max X(q) W(low)/X(q) W(high)/X(q)  e(spline)
   2      8    10.129    53.897    0.29E-03    0.16E-03    0.95E-07
   2      8    10.129    52.416    0.29E-03    0.17E-03    0.97E-07
   0      9    10.129   122.045    0.59E-04    0.96E-05    0.73E-07
   0      9    10.129    73.629    0.57E-04    0.96E-05    0.70E-07
   1      9    10.129    15.255    0.14E-03    0.20E-04    0.11E-06
   1      9    10.129     9.562    0.11E-03    0.14E-04    0.94E-07
 Optimization of the real space projectors (new method)

 maximal supplied QI-value         = 34.20
 optimisation between [QCUT,QGAM] = [  9.92, 20.18] = [ 27.55,114.04] Ry
 Optimized for a Real-space Cutoff    1.26 Angstroem

   l    n(q)    QCUT    max X(q) W(low)/X(q) W(high)/X(q)  e(spline)
   0      8     9.919    19.460    0.50E-03    0.23E-03    0.29E-06
   0      8     9.919    12.209    0.48E-03    0.23E-03    0.28E-06
   1      7     9.919     4.655    0.17E-03    0.75E-03    0.30E-06
  PAW_PBE O 08Apr2002                   :
  PAW_PBE Ce 23Dec2003                  :
  PAW_PBE Ag 02Apr2005                  :
  PAW_PBE H 15Jun2001                   :

 POSCAR: CeO2_111_Ag
  positions in direct lattice
  velocities in cartesian coordinates
 exchange correlation table for  LEXCH =        8
   RHO(1)=    0.500       N(1)  =     2000
   RHO(2)=  100.500       N(2)  =     4000

 ion  position               nearest neighbor table
   1  0.282  0.032  0.177-  73 2.35  76 2.35  57 2.37  59 2.40
   2  0.068  0.257  0.358-  55 2.34  64 2.36  56 2.39  61 2.42
   3  0.170  0.143  0.000-  66 2.34  57 2.34  63 2.34
   4  0.283  0.033  0.450-  55 2.32  58 2.33  72 2.37
   5  0.176  0.143  0.272-  59 2.34  55 2.35  73 2.37  56 2.41
   6  0.059  0.254  0.088-  71 2.34  66 2.34  63 2.34  56 2.42
   7  0.615  0.032  0.178-  76 2.35  62 2.35  79 2.36  60 2.39
   8  0.402  0.269  0.367-  81 2.37  58 2.37  55 2.38  59 2.54
   9  0.504  0.143  0.000-  57 2.34  68 2.34  60 2.34
  10  0.616  0.030  0.447-  61 2.35  75 2.35  58 2.36
  11  0.501  0.143  0.271-  59 2.34  58 2.36  76 2.37  62 2.40
  12  0.393  0.254  0.088-  66 2.34  57 2.34  68 2.34  59 2.44
  13  0.949  0.032  0.178-  73 2.35  56 2.35  79 2.36  63 2.40
  14  0.723  0.257  0.358-  58 2.34  69 2.36  62 2.39  61 2.42
  15  0.837  0.143  0.000-  63 2.34  71 2.34  60 2.34
  16  0.948  0.030  0.448-  61 2.34  78 2.36  55 2.36
  17  0.839  0.145  0.272-  61 2.34  56 2.37  62 2.37  79 2.39
  18  0.726  0.254  0.088-  68 2.34  71 2.34  60 2.34  62 2.42
  19  0.277  0.363  0.177-  56 2.31  67 2.37  66 2.37  59 2.37
  20  0.061  0.590  0.357-  69 2.32  64 2.32  72 2.34  65 2.41
  21  0.170  0.476  0.000-  71 2.34  66 2.34  74 2.34
  22  0.235  0.343  0.477-  83 0.97  55 2.44  64 2.45
  23  0.169  0.477  0.269-  65 2.34  56 2.35  67 2.38  64 2.39
  24  0.059  0.587  0.088-  74 2.34  71 2.34  80 2.34  65 2.39
  25  0.618  0.363  0.177-  62 2.31  70 2.36  59 2.37  68 2.37
  26  0.384  0.582  0.359-  64 2.27  81 2.28  75 2.37  67 2.43
  27  0.504  0.476  0.000-  66 2.34  77 2.34  68 2.34
  28  0.644  0.338  0.480-  82 0.97  58 2.44  69 2.45
  29  0.505  0.478  0.257-  59 2.26  70 2.27  67 2.27  81 2.58
  30  0.393  0.587  0.088-  66 2.34  74 2.34  77 2.34  67 2.41
  31  0.948  0.364  0.177-  62 2.35  56 2.36  65 2.36  71 2.37
  32  0.730  0.580  0.360-  81 2.26  69 2.27  78 2.38  70 2.45
  33  0.837  0.476  0.000-  71 2.34  68 2.34  80 2.34
  34  0.950  0.366  0.447-  69 2.32  64 2.32  61 2.36
  35  0.840  0.477  0.269-  65 2.34  62 2.35  70 2.38  69 2.40
  36  0.726  0.587  0.088-  68 2.34  80 2.34  77 2.34  70 2.41
  37  0.282  0.700  0.177-  76 2.35  65 2.35  74 2.37  67 2.38
  38  0.060  0.920  0.358-  72 2.34  55 2.34  78 2.36  73 2.40
  39  0.170  0.810  0.000-  57 2.34  80 2.34  74 2.34
  40  0.280  0.699  0.451-  72 2.34  64 2.34  75 2.37
  41  0.171  0.810  0.269-  73 2.35  76 2.35  65 2.37  72 2.39
  42  0.059  0.921  0.088-  57 2.34  80 2.34  63 2.34  73 2.41
  43  0.618  0.704  0.176-  79 2.31  77 2.36  67 2.38  70 2.39
  44  0.392  0.920  0.358-  58 2.34  72 2.34  75 2.36  76 2.40
  45  0.504  0.810  0.000-  74 2.34  60 2.34  77 2.34
  46  0.618  0.703  0.450-  81 2.19  78 2.33  75 2.34
  47  0.503  0.808  0.271-  75 2.35  67 2.36  79 2.37  76 2.38
  48  0.393  0.921  0.088-  74 2.34  57 2.34  60 2.34  76 2.41
  49  0.949  0.699  0.177-  73 2.35  65 2.35  80 2.37  70 2.38
  50  0.727  0.920  0.357-  61 2.36  78 2.37  75 2.37  79 2.38
  51  0.837  0.810  0.000-  63 2.34  80 2.34  77 2.34
  52  0.952  0.699  0.451-  72 2.34  69 2.34  78 2.37
  53  0.837  0.807  0.271-  78 2.35  70 2.36  73 2.38  79 2.38
  54  0.726  0.921  0.088-  60 2.34  77 2.34  63 2.34  79 2.42
  55  0.172  0.141  0.404-   4 2.32   2 2.34  38 2.34   5 2.35  16 2.36   8 2.38  22 2.44
  56  0.061  0.255  0.223-  19 2.31  23 2.35  13 2.35  31 2.36  17 2.37   2 2.39   5 2.41   6 2.42

  57  0.282  0.032  0.044-   9 2.34  39 2.34  42 2.34   3 2.34  12 2.34  48 2.34   1 2.37
  58  0.503  0.141  0.404-   4 2.33  14 2.34  44 2.34  11 2.36  10 2.36   8 2.37  28 2.44
  59  0.395  0.258  0.225-  29 2.26   5 2.34  11 2.34  25 2.37  19 2.37   1 2.40  12 2.44   8 2.54

[...]

  80  0.948  0.698  0.044-  39 2.34  51 2.34  42 2.34  36 2.34  33 2.34  24 2.34  49 2.37
  81  0.517  0.500  0.401-  46 2.19  32 2.26  26 2.28   8 2.37  29 2.58
  82  0.621  0.364  0.527-  28 0.97
  83  0.283  0.368  0.525-  22 0.97

  LATTYP: Found a hexagonal cell.
 ALAT       =    11.4785003662
 C/A-ratio  =     1.5516051738

  Lattice vectors:

 A1 = (  11.4785003662,   0.0000000000,   0.0000000000)
 A2 = (  -5.7392501831,   9.9406729145,   0.0000000000)
 A3 = (   0.0000000000,   0.0000000000,  17.8101005554)

Analysis of symmetry for initial positions (statically):
 Subroutine PRICEL returns:
 Original cell was already a primitive cell.

 Routine SETGRP: Setting up the symmetry group for a
 hexagonal supercell.

 Subroutine GETGRP returns: Found  1 space group operations
 (whereof  1 operations were pure point group operations)
 out of a pool of 24 trial point group operations.

The static configuration has the point symmetry C_1 .

Analysis of symmetry for dynamics (positions and initial velocities):
 Subroutine PRICEL returns:
 Original cell was already a primitive cell.

[...]

The dynamic configuration has the point symmetry C_1 .

Analysis of constrained symmetry for selective dynamics:
 Subroutine PRICEL returns:
 Original cell was already a primitive cell.

[...]

The constrained configuration has the point symmetry C_1 .

Analysis of structural, dynamic, and magnetic symmetry:
 Subroutine PRICEL returns:
 Original cell was already a primitive cell.

 Routine SETGRP: Setting up the symmetry group for a
 hexagonal supercell.

 Subroutine GETGRP returns: Found  1 space group operations
 (whereof  1 operations were pure point group operations)
 out of a pool of 24 trial point group operations.

The magnetic configuration has the point symmetry C_1 .

 Subroutine INISYM returns: Found  1 space group operations
 (whereof  1 operations are pure point group operations),
 and found     1 'primitive' translations

 KPOINTS: mesh auto

Automatic generation of k-mesh.
Space group operators:
 irot       det(A)        alpha          n_x          n_y          n_z        tau_x        tau_y        tau_z
    1     1.000000     0.000001     1.000000     0.000000     0.000000     0.000000     0.000000     0.000000

 Subroutine IBZKPT returns following result:

 Found      4 irreducible k-points:

 Following reciprocal coordinates:
            Coordinates               Weight
  0.000000  0.000000  0.000000      1.000000
  0.500000 -0.000000  0.000000      1.000000
  0.000000  0.500000  0.000000      1.000000
  0.500000  0.500000  0.000000      1.000000

 Following cartesian coordinates:
            Coordinates               Weight
  0.000000  0.000000  0.000000      1.000000
  0.043560  0.025149  0.000000      1.000000
  0.000000  0.050298  0.000000      1.000000
  0.043560  0.075448  0.000000      1.000000

 SYSTEM =  CeO2
 POSCAR =  CeO2_111_Ag

 Startparameter for this run:
   NWRITE =      2    write-flag & timer
   PREC   = normal    normal or accurate (medium, high low for compatibility)
   ISTART =      0    job   : 0-new  1-cont  2-samecut
   ICHARG =      2    charge: 1-file 2-atom 10-const
   ISPIN  =      2    spin polarized calculation?
   LNONCOLLINEAR =      F non collinear calculations
   LSORBIT =      F    spin-orbit coupling
   INIWAV =      1    electr: 0-lowe 1-rand  2-diag
   LASPH  =      F    aspherical Exc in radial PAW
   METAGGA=      F    non-selfconsistent MetaGGA calc.

 Electronic Relaxation 1
   ENCUT  =  400.0 eV  29.40 Ry    5.42 a.u.  18.72 18.72 29.04*2*pi/ulx,y,z
   ENINI  =  400.0     initial cutoff
   ENAUG  =  605.4 eV  augmentation charge cutoff
   NELM   =    500;   NELMIN=  8; NELMDL=  0     # of ELM steps
   EDIFF  = 0.1E-03   stopping-criterion for ELM
   LREAL  =      T    real-space projection
   NLSPLINE    = F    spline interpolate recip. space projectors
   LCOMPAT=      F    compatible to vasp.4.4
   GGA_COMPAT  = T    GGA compatible to vasp.4.4-vasp.4.6
   LMAXPAW     = -100 max onsite density
   LMAXMIX     =    6 max onsite mixed and CHGCAR
   VOSKOWN=      0    Vosko Wilk Nusair interpolation
   ROPT   =   -0.00050  -0.00050  -0.00050  -0.00050
 Ionic relaxation
   EDIFFG = -.5E-01   stopping-criterion for IOM
   NSW    =      0    number of steps for IOM
   NBLOCK =      1;   KBLOCK =      1    inner block; outer block
[...]

  length of vectors
    11.478500366 11.478500366 17.810100555     0.100596812  0.100596812  0.056147914

 FORCES acting on ions
    electron-ion (+dipol)            ewald-force                    non-local-force                 convergence-correction
   0.279E+00 -.142E+02 0.240E+03   -.290E+00 0.151E+02 -.241E+03   0.195E-01 -.941E+00 0.342E+00   -.564E-03 -.341E-03 -.325E-02
   -.121E+02 -.948E+00 -.680E+03   0.118E+02 0.901E+00 0.680E+03   0.367E+00 0.458E-01 0.201E+00   -.635E-02 0.787E-03 -.206E-02
   -.142E+00 0.265E+00 0.118E+04   0.167E+00 -.244E+00 -.119E+04   -.431E-01 -.410E-01 0.725E+01   -.214E-02 -.878E-03 0.720E-02
   -.516E+00 -.622E+01 -.117E+04   0.620E+00 0.595E+01 0.118E+04   -.879E-01 0.278E+00 -.832E+01   -.100E-01 -.105E-01 0.845E-02
   -.598E+01 -.997E+01 -.260E+03   0.550E+01 0.997E+01 0.260E+03   0.472E+00 0.176E-01 0.222E-02   -.185E-02 0.417E-03 -.905E-02
   0.662E-01 0.429E+01 0.695E+03   -.768E-01 -.425E+01 -.694E+03   -.261E-01 -.119E+00 -.197E+00   -.359E-03 -.331E-02 0.553E-03
   -.258E+00 -.166E+01 0.236E+03   0.320E+00 0.169E+01 -.236E+03   -.640E-01 -.286E-01 0.640E+00   0.246E-02 -.905E-03 -.425E-02
   -.275E-01 -.501E+02 -.749E+03   -.183E-02 0.532E+02 0.749E+03   0.258E-01 -.315E+01 0.150E+00   -.966E-02 0.149E-01 -.606E-02
   0.221E+00 0.232E+00 0.118E+04   -.244E+00 -.213E+00 -.119E+04   0.401E-01 -.411E-01 0.726E+01   0.126E-02 0.339E-03 0.663E-02
   -.261E+01 0.885E+01 -.117E+04   0.255E+01 -.868E+01 0.117E+04   0.360E-01 -.152E+00 -.800E+01   0.178E-01 -.835E-02 0.539E-02
   0.717E+01 -.994E+01 -.260E+03   -.679E+01 0.996E+01 0.260E+03   -.387E+00 -.170E-01 -.128E+00   0.594E-03 0.362E-03 -.200E-01
   0.268E+00 0.222E+01 0.689E+03   -.304E+00 -.240E+01 -.688E+03   0.512E-01 0.262E+00 -.205E+00   0.256E-03 0.106E-02 0.184E-02
   -.469E+00 -.169E+01 0.235E+03   0.457E+00 0.173E+01 -.236E+03   0.103E-01 -.508E-01 0.671E+00   -.192E-02 -.117E-02 -.379E-02
   0.115E+02 -.861E+00 -.678E+03   -.110E+02 0.747E+00 0.678E+03   -.444E+00 0.106E+00 0.282E+00   0.155E-01 0.855E-02 -.704E-02
   -.131E+00 0.104E+01 0.118E+04   0.128E+00 -.101E+01 -.119E+04   0.574E-02 -.477E-01 0.727E+01   0.915E-03 -.319E-02 0.102E-01
   0.852E+00 0.840E+01 -.117E+04   -.665E+00 -.835E+01 0.118E+04   -.172E+00 -.527E-01 -.798E+01   -.774E-02 -.622E-03 0.265E-02
   -.167E+00 0.260E+01 -.251E+03   0.131E+00 -.276E+01 0.251E+03   0.358E-01 0.152E+00 0.280E+00   0.106E-02 -.109E-02 -.202E-02
   -.151E+00 0.396E+01 0.695E+03   0.959E-01 -.392E+01 -.695E+03   0.127E+00 -.108E+00 -.204E+00   0.866E-04 -.122E-02 0.166E-02
   -.601E+01 0.471E+01 0.238E+03   0.656E+01 -.462E+01 -.239E+03   -.530E+00 -.963E-01 0.689E+00   0.704E-03 0.495E-03 -.208E-02
   0.453E+00 -.465E+01 -.674E+03   -.468E+00 0.523E+01 0.672E+03   0.164E-01 -.586E+00 0.183E+01   -.223E-02 0.717E-04 -.774E-03
   -.632E+00 0.532E+00 0.118E+04   0.637E+00 -.546E+00 -.119E+04   -.128E-01 0.297E-01 0.729E+01   0.137E-02 0.686E-03 0.661E-02
   -.315E+02 -.119E+02 -.114E+04   0.184E+02 0.365E+01 0.111E+04   0.131E+02 0.826E+01 0.248E+02   -.817E-03 0.527E-02 0.381E-02
   -.126E+02 0.331E+01 -.244E+03   0.130E+02 -.319E+01 0.245E+03   -.351E+00 -.118E+00 -.658E+00   0.585E-03 0.272E-03 -.243E-02
   0.972E-01 0.712E+00 0.701E+03   -.115E+00 -.721E+00 -.701E+03   0.266E-01 -.551E-02 0.309E+00   -.870E-04 0.520E-03 0.178E-02
   0.492E+01 0.446E+01 0.239E+03   -.528E+01 -.441E+01 -.239E+03   0.342E+00 -.574E-01 0.713E+00   0.423E-03 0.383E-03 -.422E-02
   -.246E+02 0.291E+02 -.698E+03   0.265E+02 -.300E+02 0.697E+03   -.188E+01 0.842E+00 0.113E+01   0.451E-02 0.366E-03 0.572E-03
   0.181E-02 0.688E+00 0.118E+04   -.973E-03 -.697E+00 -.119E+04   -.183E-02 0.159E-01 0.727E+01   0.575E-03 0.131E-02 0.628E-02
   0.318E+02 -.127E+02 -.114E+04   -.175E+02 0.410E+01 0.112E+04   -.143E+02 0.861E+01 0.241E+02   0.214E-02 0.154E-01 0.891E-02
   0.629E+00 0.105E+02 -.233E+03   -.719E+00 -.105E+02 0.239E+03   0.919E-01 0.193E-01 -.620E+01   -.114E-02 0.195E-02 -.743E-03
   -.552E+00 0.177E+00 0.696E+03   0.497E+00 -.117E+00 -.696E+03   0.920E-01 -.992E-01 0.125E+00   0.136E-02 0.176E-02 0.118E-02
   -.375E+00 0.561E+01 0.245E+03   0.432E+00 -.565E+01 -.245E+03   -.622E-01 0.325E-01 0.377E+00   -.972E-03 -.127E-02 -.133E-02
   0.218E+02 0.282E+02 -.702E+03   -.231E+02 -.289E+02 0.700E+03   0.133E+01 0.632E+00 0.138E+01   -.263E-02 0.326E-03 0.103E-02
   0.578E+00 0.442E+00 0.118E+04   -.583E+00 -.456E+00 -.119E+04   0.140E-01 0.291E-01 0.729E+01   -.187E-02 -.237E-03 0.585E-02
   -.216E+01 0.109E+02 -.116E+04   0.222E+01 -.118E+02 0.117E+04   -.680E-01 0.911E+00 -.841E+01   0.307E-03 -.117E-02 -.672E-03
   0.136E+02 0.240E+01 -.246E+03   -.141E+02 -.228E+01 0.247E+03   0.439E+00 -.117E+00 -.861E+00   0.659E-03 0.909E-03 -.138E-02
   0.664E+00 -.143E+00 0.696E+03   -.649E+00 0.224E+00 -.695E+03   -.389E-01 -.125E+00 0.120E+00   -.134E-02 -.378E-03 0.102E-02
   -.719E+01 -.239E+00 0.243E+03   0.761E+01 0.861E-01 -.243E+03   -.410E+00 0.155E+00 0.190E+00   0.125E-02 0.612E-03 -.182E-02
   0.387E+01 -.480E+01 -.686E+03   -.413E+01 0.463E+01 0.685E+03   0.272E+00 0.186E+00 0.957E+00   -.116E-02 -.630E-02 -.336E-02
   0.684E-01 -.122E+01 0.118E+04   -.702E-01 0.123E+01 -.119E+04   0.385E-02 -.236E-01 0.732E+01   0.455E-03 -.159E-04 0.490E-02
   -.127E+02 -.629E+01 -.118E+04   0.131E+02 0.656E+01 0.119E+04   -.414E+00 -.270E+00 -.845E+01   0.133E-02 -.171E-02 0.201E-03
   -.178E+00 -.271E+01 -.245E+03   0.221E+00 0.238E+01 0.246E+03   -.342E-01 0.325E+00 -.832E+00   -.644E-03 -.171E-02 -.283E-02
   0.222E+01 -.336E+01 0.695E+03   -.225E+01 0.334E+01 -.695E+03   0.663E-02 0.504E-01 0.356E-01   -.222E-02 0.124E-02 0.125E-02
   -.893E+00 0.199E+01 0.243E+03   0.957E+00 -.262E+01 -.243E+03   -.669E-01 0.617E+00 0.374E+00   -.684E-03 0.170E-02 -.210E-02
   -.287E+01 -.433E+01 -.685E+03   0.311E+01 0.410E+01 0.684E+03   -.233E+00 0.255E+00 0.958E+00   -.482E-04 -.168E-01 -.724E-02
   -.285E+00 -.975E+00 0.118E+04   0.296E+00 0.956E+00 -.119E+04   -.239E-01 0.382E-01 0.729E+01   0.151E-02 0.268E-03 0.713E-02
   0.119E+01 0.435E+01 -.118E+04   -.129E+01 -.380E+01 0.119E+04   0.995E-01 -.548E+00 -.974E+01   -.131E-02 -.348E-02 0.487E-04
   -.110E+01 0.127E+01 -.248E+03   0.936E+00 -.111E+01 0.248E+03   0.163E+00 -.158E+00 0.948E-01   0.244E-02 -.166E-02 -.400E-02
   -.193E+01 -.327E+01 0.696E+03   0.191E+01 0.324E+01 -.696E+03   0.633E-01 0.631E-01 0.686E-01   0.214E-02 -.537E-03 0.139E-02
   0.727E+01 -.435E+00 0.243E+03   -.767E+01 0.296E+00 -.243E+03   0.403E+00 0.138E+00 0.200E+00   -.597E-03 0.315E-03 -.121E-02
   -.719E+00 0.283E+01 -.686E+03   0.738E+00 -.301E+01 0.685E+03   -.190E-01 0.194E+00 0.318E+00   0.122E-02 -.142E-03 -.802E-03
   0.188E+00 -.107E+01 0.118E+04   -.197E+00 0.105E+01 -.119E+04   0.218E-01 0.422E-01 0.729E+01   -.203E-02 0.164E-02 0.674E-02
   0.125E+02 -.601E+01 -.118E+04   -.129E+02 0.619E+01 0.119E+04   0.413E+00 -.177E+00 -.842E+01   -.311E-04 -.225E-02 -.880E-03
   0.169E+01 0.134E+01 -.250E+03   -.162E+01 -.113E+01 0.250E+03   -.722E-01 -.211E+00 0.783E-01   -.178E-02 0.186E-03 -.354E-02
   -.299E+00 -.440E+01 0.695E+03   0.270E+00 0.429E+01 -.694E+03   0.473E-01 0.276E+00 -.122E+00   0.563E-04 0.952E-03 0.886E-03
   -.377E+02 -.421E+02 -.187E+04   0.379E+02 0.408E+02 0.186E+04   -.222E+00 0.126E+01 0.258E+01   -.877E-02 0.514E-03 0.818E-03
   -.824E+01 0.165E+02 -.125E+02   0.835E+01 -.159E+02 0.123E+02   -.129E+00 -.581E+00 0.183E+00   -.100E-02 -.728E-03 -.393E-02
   0.437E+00 -.433E+01 0.191E+04   -.436E+00 0.443E+01 -.191E+04   -.610E-03 -.291E-01 -.220E+01   0.221E-03 -.311E-03 0.732E-02
   0.416E+02 -.412E+02 -.187E+04   -.417E+02 0.400E+02 0.186E+04   0.166E+00 0.118E+01 0.256E+01   -.223E-02 0.204E-03 -.993E-03
   0.866E+00 0.101E+02 -.617E+02   -.856E+00 -.897E+01 0.618E+02   -.238E-01 -.110E+01 -.821E-01   -.480E-02 0.404E-02 -.998E-02
   -.413E+00 -.624E+00 0.191E+04   0.440E+00 0.689E+00 -.191E+04   -.909E-02 -.305E-01 -.201E+01   0.457E-02 -.253E-02 0.827E-02
[...]
   -.253E+01 -.504E+00 -.218E+02   0.162E+01 -.223E-01 0.218E+02   0.914E+00 0.536E+00 -.520E-01   -.230E-02 0.217E-02 -.228E-02
   0.392E-01 0.365E+01 0.192E+04   -.309E-01 -.379E+01 -.192E+04   -.181E-04 0.563E-01 -.222E+01   -.751E-03 -.431E-02 0.927E-02
   0.131E+00 -.181E+02 -.190E+04   -.126E+00 0.177E+02 0.190E+04   -.122E-02 0.371E+00 0.203E+01   -.464E-02 -.684E-02 -.839E-03
   0.112E+02 -.135E+02 0.356E+00   -.108E+02 0.134E+02 -.578E+00   -.372E+00 0.873E-01 0.198E+00   -.271E-02 -.572E-03 -.438E-02
   -.251E+01 -.121E+01 0.192E+04   0.256E+01 0.125E+01 -.192E+04   -.896E-02 -.185E-01 -.221E+01   0.420E-02 0.227E-02 0.683E-02
   -.503E+01 0.115E+02 -.189E+04   0.530E+01 -.115E+02 0.189E+04   -.289E+00 -.628E-01 0.229E+01   0.967E-02 -.108E-01 0.573E-03
   -.926E+01 -.128E+02 0.145E+01   0.893E+01 0.128E+02 -.168E+01   0.336E+00 0.502E-01 0.218E+00   0.201E-02 -.567E-02 -.114E-01
   -.884E-01 0.436E+00 0.192E+04   0.100E+00 -.353E+00 -.192E+04   -.541E-02 -.341E-01 -.226E+01   -.392E-02 0.287E-02 0.748E-02
   0.403E+01 0.105E+02 -.190E+04   -.434E+01 -.105E+02 0.189E+04   0.334E+00 -.171E-01 0.225E+01   -.552E-02 -.219E-02 0.810E-03
   -.186E+01 -.117E+02 -.396E+01   0.182E+01 0.111E+02 0.377E+01   0.417E-01 0.626E+00 0.161E+00   0.695E-03 -.111E-02 -.555E-02
   0.283E+01 -.153E+01 0.192E+04   -.287E+01 0.157E+01 -.192E+04   0.884E-02 -.190E-01 -.221E+01   -.202E-03 -.631E-03 0.634E-02
   0.838E+00 0.115E+03 -.172E+04   -.630E+00 -.113E+03 0.172E+04   -.212E+00 -.230E+01 0.119E+01   -.253E-02 0.104E-01 0.246E-04
   0.375E+02 -.223E+02 -.245E+03   -.409E+02 0.244E+02 0.252E+03   0.346E+01 -.213E+01 -.703E+01   -.152E-03 0.135E-02 0.719E-03
   -.356E+02 -.219E+02 -.247E+03   0.389E+02 0.241E+02 0.254E+03   -.331E+01 -.212E+01 -.711E+01   -.107E-03 0.478E-03 -.515E-04
   0.183E+01 -.945E+01 -.460E+02   -.533E-12 -.183E-11 -.122E-11   -.182E+01 0.944E+01 0.455E+02   0.729E-03 -.707E-02 0.188E-01

 POSITION                                       TOTAL-FORCE (eV/Angst)
      3.05376      0.31525      3.15235         0.008002      0.007213     -0.001947
     -0.69645      2.55180      6.37007        -0.003773     -0.000462      0.007703
      1.13689      1.42003      0.00000        -0.020496     -0.020130     -0.327437
      3.05856      0.32503      8.01122         0.006100     -0.002354     -0.003374
      1.19690      1.42215      4.83874        -0.003514      0.011038      0.004220
     -0.77618      2.52453      1.56195        -0.037199     -0.084146      0.415293
      6.87754      0.31941      3.17532        -0.000143     -0.006740      0.010774
      3.07220      2.67731      6.53953        -0.013340      0.009763      0.002914
      4.96302      1.42003      0.00000         0.019082     -0.020902     -0.326627
      6.89708      0.29380      7.96975        -0.006472      0.007654      0.005700
      4.92625      1.42278      4.83496        -0.006383      0.005090      0.004143
      3.04995      2.52453      1.56195         0.015049      0.082256      0.554329
     10.71249      0.31829      3.17847        -0.003530     -0.005965      0.008638
      6.82414      2.55133      6.37240         0.001885      0.000434      0.002743
      8.78926      1.42003      0.00000         0.003289     -0.024206     -0.325693
     10.70772      0.30302      7.97577         0.006556     -0.005091      0.000201
      8.79774      1.43967      4.84070         0.001073     -0.006077      0.000474
      6.87620      2.52453      1.56195         0.071829     -0.075799      0.409349
      1.10269      3.60550      3.15067         0.016791      0.003478      0.001265
     -2.68183      5.86323      6.35775        -0.000184     -0.008913      0.005693
     -0.77618      4.73355      0.00000        -0.006744      0.016229     -0.314158
      0.73189      3.40807      8.50240        -0.042128     -0.027415     -0.000825
     -0.79746      4.74140      4.78451         0.004054     -0.003795      0.007338
     -2.68924      5.83806      1.56195         0.008751     -0.013266      0.437072
      5.00763      3.60511      3.14966        -0.018112     -0.002753      0.003698
      1.07235      5.78168      6.39542        -0.006198     -0.010003      0.016464
      3.04995      4.73355      0.00000        -0.000558      0.008163     -0.328770
      5.45501      3.36346      8.54270        -0.008747      0.000958     -0.032462
      3.05594      4.75188      4.57385         0.001300     -0.005254      0.010530
      1.13689      5.83806      1.56195         0.038139     -0.037442      0.498410
      8.79525      3.61684      3.14850        -0.006513     -0.006271      0.007902
      5.04758      5.76332      6.41294        -0.011739     -0.003540      0.006870
      6.87620      4.73355      0.00000         0.007185      0.015313     -0.314176
      8.80861      3.63457      7.95796        -0.011387     -0.001957      0.004954
      6.90905      4.73881      4.78581        -0.002087      0.003236      0.015266
      4.96313      5.83806      1.56195        -0.025109     -0.044585      0.504591
     -0.77595      6.95359      3.14674         0.011580      0.003456      0.009397
     -4.58566      9.14418      6.37201         0.006996      0.009048      0.003906
     -2.68930      8.04717      0.00000         0.002383     -0.011578     -0.308675
     -0.79518      6.94993      8.02416         0.000303     -0.001441      0.006864
     -2.68541      8.05269      4.79641         0.007858     -0.002468      0.007237
     -4.60236      9.15168      1.56195        -0.022398      0.033954      0.471922
      3.05390      6.99518      3.14092        -0.003665     -0.010284      0.009810
     -0.77872      9.14453      6.37035         0.005802      0.008308     -0.003048
      1.13683      8.04717      0.00000        -0.012284      0.019076     -0.315960
      3.06331      6.98777      8.00614        -0.008489      0.007595      0.013601
      1.13656      8.03001      4.81837         0.001768     -0.003943     -0.000156
     -0.77623      9.15168      1.56195         0.045734      0.037546      0.466778
      6.88114      6.95201      3.14685        -0.005767     -0.000188      0.002922
      3.06312      9.14475      6.35565         0.001539      0.018846     -0.015210
      4.96307      8.04717      0.00000         0.010456      0.021822     -0.317178
      6.91331      6.94769      8.02911         0.009448      0.003881      0.001478
      4.97793      8.01970      4.82325        -0.003042     -0.000609      0.009971
      3.05001      9.15168      1.56195         0.017858      0.166631      0.442463
      1.16857      1.40024      7.18986        -0.020445      0.000104     -0.007509
     -0.76407      2.53254      3.98025        -0.011350     -0.011303     -0.033502
      3.04995      0.31552      0.78097         0.001130      0.075461     -0.103070
      4.96257      1.39697      7.19166        -0.021809     -0.008280     -0.012155
      3.05890      2.56291      3.99964        -0.018826     -0.001949     -0.018422
      6.87620      0.31552      0.78097         0.022155      0.032092     -0.115699
[...]
      6.93499      4.76017      7.18511        -0.000079      0.019382     -0.003839
      4.95936      5.82298      3.96876         0.003538      0.011360     -0.014723
      8.78926      3.62904      0.78097         0.007382     -0.088801     -0.152898
     -2.68161      8.04813      7.18730        -0.000558     -0.020376      0.004981
     -4.58617      9.15262      3.97134        -0.012005     -0.007795     -0.023823
     -0.77623      6.94267      0.78097         0.042886      0.024670     -0.185973
      1.14134      8.02438      7.16667        -0.013557     -0.009609      0.008462
     -0.78185      9.15499      3.96880         0.003384     -0.014865     -0.021130
      3.05001      6.94267      0.78097         0.002252      0.052213     -0.140420
      4.97990      8.02238      7.17389         0.015816      0.007800     -0.011267
      3.05603      9.14759      3.97832         0.008298      0.000134     -0.026361
      6.87614      6.94267      0.78097        -0.034898      0.025084     -0.179428
      3.06566      4.96805      7.14881        -0.006837     -0.005266     -0.004318
      5.03697      3.61936      9.38209        -0.016706      0.006848      0.020232
      1.13107      3.66287      9.35116         0.017012      0.000296      0.021912
    total drift:                                0.011552     -0.013548     -0.412681
  FORCES: max atom, RMS     0.050269    0.016297
  Number: max atom                22
  FORCE total and by dimension    0.148477    0.042128

  FREE ENERGIE OF THE ION-ELECTRON SYSTEM (eV)
  free  energy   TOTEN  =      -645.89286789 eV

  energy  without entropy=     -645.89286789  energy(sigma->0) =     -645.89286789